Problem:    B
Rows:       17
Columns:    9 (2 integer, 0 binary)
Non-zeros:  35
Status:     INTEGER OPTIMAL
Objective:  z = 10382600 (MAXimum)

   No.   Row name        Activity     Lower bound   Upper bound
------ ------------    ------------- ------------- -------------
     1 z                 1.03826e+07                             
     2 pasesMetrosG1
                                   0                          -0 
     3 pasesMetrosG2
                                   0            -0               
     4 pasesMetrosS1
                                   0                          -0 
     5 pasesMetrosS2
                                   0            -0               
     6 metrosTotales
                                7974                        8000 
     7 minGold                   104           100               
     8 minSilver               15740           502               
     9 Ptotales1                   0            -0               
    10 Ptotales2                   0                          -0 
    11 Pmax                      800                         800 
    12 demMinSilv                  0            -0               
    13 demMinGold                  0            -0               
    14 ing1                        0            -0               
    15 ing2                        0                          -0 
    16 egr1                  -151400                     -151400 
    17 egr2                  -151400       -151400               

   No. Column name       Activity     Lower bound   Upper bound
------ ------------    ------------- ------------- -------------
     1 Mgold                     104             0               
     2 Msilv                    7870             0               
     3 Sgold                     104             0               
     4 Ssilv                   15740             0               
     5 P                         800             0               
     6 Pgold        *             13             0               
     7 Psilv        *            787             0               
     8 Ingresos           1.1174e+07             0               
     9 Egresos                791400             0               

Integer feasibility conditions:

KKT.PE: max.abs.err = 0.00e+00 on row 0
        max.rel.err = 0.00e+00 on row 0
        High quality

KKT.PB: max.abs.err = 0.00e+00 on row 0
        max.rel.err = 0.00e+00 on row 0
        High quality

End of output
